14
0 68 184 30 18 652 12 355 253 123 739 299 5 23
68 0 112 23 151 196 8 689 475 93 108 184 133 236
184 112 0 154 150 636 0 89 200 660 8 55 37 477
30 23 154 0 197 233 114 57 563 151 11 421 398 732
18 151 150 197 0 248 54 146 279 279 255 709 10 10
652 196 636 233 248 0 454 191 153 78 333 34 8 28
12 8 0 114 54 454 0 309 753 99 27 415 15 142
355 689 89 57 146 191 309 0 202 487 111 400 441 86
253 475 200 563 279 153 753 202 0 240 12 256 103 523
123 93 660 151 279 78 99 487 240 0 33 126 507 56
739 108 8 11 255 333 27 111 12 33 0 59 117 400
299 184 55 421 709 34 415 400 256 126 59 0 236 237
5 133 37 398 10 8 15 441 103 507 117 236 0 151
23 236 477 732 10 28 142 86 523 56 400 237 151 0